32      4       
10      10      10      10      
0       0       0       0       0       5       2       3       4       5       7       
5       0       1       1       1       4       6       8       10      11      
3       1       3       0       7       4       6       10      11      13      
3       5       5       7       0       4       10      11      12      13      
9       3       3       4       0       3       9       11      14      
1       4       0       4       4       2       9       14      
2       6       0       6       4       2       11      16      
5       0       5       3       3       1       9       
2       5       0       4       2       3       12      15      17      
5       2       4       2       0       4       15      16      17      20      
2       2       3       0       2       3       15      17      18      
10      5       4       4       0       2       18      19      
2       0       5       7       2       1       14      
10      0       6       1       2       2       17      23      
4       2       3       7       0       2       19      23      
5       4       7       0       1       2       19      23      
3       6       7       6       0       1       19      
6       5       5       4       0       1       20      
7       0       6       4       4       4       21      22      24      25      
4       5       1       0       3       4       22      23      24      25      
9       2       2       0       7       5       26      28      29      30      31      
2       4       3       0       5       4       26      28      29      30      
8       0       5       1       8       4       26      28      29      30      
9       4       4       4       0       3       26      29      31      
5       5       4       4       0       2       27      28      
8       0       2       5       7       1       27      
8       0       3       2       3       1       32      
3       6       0       5       7       1       32      
2       4       0       4       4       1       32      
10      4       5       5       0       1       32      
9       4       4       2       0       1       32      
0       0       0       0       0       0       
